59312
61472
62130
59453
58951
60062
60414
61472
61885
58959
109109
109841
108508
109383
110720
110256
109040
109042
109971
107058
149659
155940
149334
152130
150353
150045
148607
149772
155075
154662
